DIMENSION: 12
EDGE_WEIGHT_TYPE: EXPLICIT
EDGE_WEIGHT_FORMAT: FULL_MATRIX
EDGE_WEIGHT_SECTION:
32767 64 82 95 93 75 41 75 99 83 8 32767 
64 32767 76 11 38 30 18 71 69 55 59 94 
82 76 32767 54 32767 98 52 71 14 35 17 59 
95 11 54 32767 80 39 88 32767 6 6 14 53 
93 38 32767 80 32767 22 65 20 65 32767 20 83 
75 30 98 39 22 32767 67 9 11 15 97 55 
41 18 52 88 65 67 32767 58 63 75 82 98 
75 71 71 32767 20 9 58 32767 62 41 6 9 
99 69 14 6 65 11 63 62 32767 99 33 24 
83 55 35 6 32767 15 75 41 99 32767 58 92 
8 59 17 14 20 97 82 6 33 58 32767 32767 
32767 94 59 53 83 55 98 9 24 92 32767 32767 
EOF